50	559730

8717 33026
7096 30560
3881 23679
1442 14913
6678 29834
4046 24122
3119 21450
7731 31589
9369 33881
7629 31429
5139 26769
7354 30988
3074 21308
1957 17256
8910 33287
7608 31396
9323 33823
675 10304
599 9716
4013 24034
9902 34527
6034 28632
8112 32166
6443 29408
4159 24418
9218 33689
97 3934
3395 22295
2059 17677
8764 33090
8746 33066
9027 33442
5429 27399
2659 19928
4082 24217
3417 22361
1521 15300
9200 33666
2326 18722
4275 24716
5458 27461
6939 30292
6657 29796
8711 33018
6448 29417
7700 31541
9321 33820
1332 14353
1156 13402
8918 33298
